results_rootrelaxation/bin012_060_012.srr.sol
solution status: optimal solution found
objective value:                                    2
_var459_                            0.185668092208184 	(obj:0)
_var632_                           0.0297277563366842 	(obj:1)
_var666_                           0.0175237300511336 	(obj:1)
_var671_                              0.3838531344529 	(obj:0)
_var672_                            0.251590695733826 	(obj:0)
_var676_                           0.0661312193595525 	(obj:0)
_var683_                           0.0495462605611814 	(obj:1)
_var684_                            0.426723688327954 	(obj:0)
_var701_                           0.0979451340356782 	(obj:0)
_var709_                            0.383853134452907 	(obj:0)
_var717_                          0.00490247209762679 	(obj:1)
_var728_                            0.338583498487535 	(obj:0)
_var730_                           0.0440179409617146 	(obj:0)
_var734_                            0.133201209971831 	(obj:0)
_var737_                            0.310628976739358 	(obj:0)
_var743_                            0.275268592886214 	(obj:0)
_var744_                            0.487326588088035 	(obj:0)
_var746_                            0.176801919265674 	(obj:0)
_var747_                            0.101491603212685 	(obj:1)
_var749_                            0.122040262855972 	(obj:0)
_var754_                            0.339835193491189 	(obj:0)
_var757_                            0.222384478981948 	(obj:0)
_var758_                           0.0530927297382053 	(obj:1)
_var761_                           0.0904349640137626 	(obj:0)
_var764_                            0.420256597475729 	(obj:0)
_var766_                            0.125065192448103 	(obj:1)
_var767_                            0.196098883905285 	(obj:0)
_var769_                            0.241577135704627 	(obj:0)
_var773_                            0.616146865547093 	(obj:0)
_var779_                            0.247626994888928 	(obj:0)
_var782_                            0.278397830395298 	(obj:0)
_var789_                            0.137582142484621 	(obj:1)
_var790_                            0.347032439762155 	(obj:0)
_var791_                            0.152706790445409 	(obj:1)
_var793_                            0.175132992594128 	(obj:1)
_var796_                            0.379576509857094 	(obj:0)
_var799_                            0.273078126629815 	(obj:0)
_var800_                             0.24397621779493 	(obj:1)
_var807_                            0.323354542609774 	(obj:0)
_var809_                            0.279127985814099 	(obj:1)
_var812_                           0.0061541671012945 	(obj:0)
_var813_                           0.0764577031396348 	(obj:0)
_var814_                           0.0325440700949433 	(obj:1)
_var818_                          0.00448524042976267 	(obj:0)
_var820_                           0.0882444977573635 	(obj:0)
_var824_                          0.00990925211224328 	(obj:0)
_var825_                            0.172316678835911 	(obj:1)
_var826_                            0.123291957859595 	(obj:0)
_var828_                           0.0513194951496663 	(obj:0)
_var835_                           0.0323354542609703 	(obj:0)
_var840_                            0.236570355690007 	(obj:0)
_var844_                          0.00552831959947106 	(obj:0)
_var846_                           0.0465213309690077 	(obj:0)
_var847_                            0.100657139876888 	(obj:0)
_var850_                            0.288515698341526 	(obj:0)
_var852_                           0.0682173776989945 	(obj:0)
_var854_                            0.114530092834047 	(obj:0)
_var857_                            0.285908000417217 	(obj:1)
_var860_                            0.139355377073121 	(obj:1)
_var861_                            0.044017940961718 	(obj:0)
_var862_                           0.0119954104516477 	(obj:0)
_var863_                            0.031813914676133 	(obj:0)
